 vasp.5.4.1 05Feb16 (build Sep 29 2017 10:38:24) complex

 executed on           IFC91_ompi date 2021.04.01  18:44:37

 INCAR:
 POTCAR:    PAW_PBE Al 04Jan2001
 POTCAR:    PAW_PBE Al 04Jan2001
   VRHFIN =Al: s2p1

   TITEL  = PAW_PBE Al 04Jan2001
   POMASS =   26.981; ZVAL   =    3.000    mass and valenz
   ENMAX  =  240.300; ENMIN  =  180.225 eV

  PAW_PBE Al 04Jan2001                  :

 POSCAR: Al
  positions in direct lattice
  velocities in cartesian coordinates
 exchange correlation table for  LEXCH =        8
   RHO(1)=    0.500       N(1)  =     2000
   RHO(2)=  100.500       N(2)  =     4000

 ion  position               nearest neighbor table
   1  0.000  0.000  0.000-   2 2.86   3 2.86   4 2.86   2 2.86   3 2.86   2 2.86   4 2.86   2 2.86
                             3 2.86   4 2.86   3 2.86   4 2.86
   2  0.000  0.500  0.500-   1 2.86   3 2.86   4 2.86   1 2.86   4 2.86   1 2.86   3 2.86   1 2.86
                             3 2.86   4 2.86   4 2.86   3 2.86
   3  0.500  0.000  0.500-   1 2.86   2 2.86   4 2.86   1 2.86   4 2.86   2 2.86   4 2.86   4 2.86
                             1 2.86   2 2.86   1 2.86   2 2.86
   4  0.500  0.500  0.000-   1 2.86   2 2.86   3 2.86   2 2.86   3 2.86   1 2.86   3 2.86   3 2.86
                             1 2.86   2 2.86   2 2.86   1 2.86

  LATTYP: Found a simple cubic cell.
 ALAT       =     4.0407093772

  Lattice vectors:

 A1 = (   4.0407093772,   0.0000000000,   0.0000000000)
 A2 = (   0.0000000000,   4.0407093772,   0.0000000000)
 A3 = (   0.0000000000,   0.0000000000,   4.0407093772)

Analysis of symmetry for initial positions (statically):
 Subroutine PRICEL returns following result:

  LATTYP: Found a face centered cubic cell.
 ALAT       =     4.0407093772

[...]

   4 primitive cells build up your supercell.

 Routine SETGRP: Setting up the symmetry group for a
 simple cubic supercell.

 Subroutine GETGRP returns: Found 48 space group operations
 (whereof 48 operations were pure point group operations)
 out of a pool of 48 trial point group operations.

The static configuration has the point symmetry O_h .

Analysis of symmetry for dynamics (positions and initial velocities):
 Subroutine PRICEL returns following result:

[...]

The dynamic configuration has the point symmetry O_h .

Analysis of structural, dynamic, and magnetic symmetry:
 Subroutine PRICEL returns following result:

  LATTYP: Found a face centered cubic cell.
 ALAT       =     4.0407093772

  Lattice vectors:

 A1 = (   2.0203546886,   2.0203546886,   0.0000000000)
 A2 = (   2.0203546886,   0.0000000000,  -2.0203546886)
 A3 = (   0.0000000000,   2.0203546886,  -2.0203546886)

   4 primitive cells build up your supercell.

 Routine SETGRP: Setting up the symmetry group for a
 simple cubic supercell.

 Subroutine GETGRP returns: Found 48 space group operations
 (whereof 48 operations were pure point group operations)
 out of a pool of 48 trial point group operations.

The magnetic configuration has the point symmetry O_h .

 Subroutine INISYM returns: Found 48 space group operations
 (whereof 48 operations are pure point group operations),
 and found     4 'primitive' translations

 KPOINTS: K-points
  interpolating k-points between supplied coordinates
  k-points in reciprocal lattice
Space group operators:
 irot       det(A)        alpha          n_x          n_y          n_z        tau_x        tau_y        tau_z
    1     1.000000     0.000001     1.000000     0.000000     0.000000     0.000000     0.000000     0.000000
    2    -1.000000     0.000001     1.000000     0.000000     0.000000     0.000000     0.000000     0.000000
    3     1.000000   120.000000    -0.577350    -0.577350    -0.577350     0.000000     0.000000     0.000000
    4    -1.000000   120.000000    -0.577350    -0.577350    -0.577350     0.000000     0.000000     0.000000
    5     1.000000   120.000000     0.577350     0.577350     0.577350     0.000000     0.000000     0.000000
    6    -1.000000   120.000000     0.577350     0.577350     0.577350     0.000000     0.000000     0.000000
    7     1.000000    90.000000     0.000000     0.000000    -1.000000     0.000000     0.000000     0.000000
    8    -1.000000    90.000000     0.000000     0.000000    -1.000000     0.000000     0.000000     0.000000
    9     1.000000   180.000000     0.000000     0.707107     0.707107     0.000000     0.000000     0.000000
   10    -1.000000   180.000000     0.000000     0.707107     0.707107     0.000000     0.000000     0.000000
   11     1.000000    90.000000     0.000000     1.000000     0.000000     0.000000     0.000000     0.000000
   12    -1.000000    90.000000     0.000000     1.000000     0.000000     0.000000     0.000000     0.000000
   13     1.000000   180.000000     0.000000     0.000000     1.000000     0.000000     0.000000     0.000000
   14    -1.000000   180.000000     0.000000     0.000000     1.000000     0.000000     0.000000     0.000000
   15     1.000000   120.000000    -0.577350     0.577350     0.577350     0.000000     0.000000     0.000000
   16    -1.000000   120.000000    -0.577350     0.577350     0.577350     0.000000     0.000000     0.000000
   17     1.000000   120.000000    -0.577350     0.577350    -0.577350     0.000000     0.000000     0.000000
   18    -1.000000   120.000000    -0.577350     0.577350    -0.577350     0.000000     0.000000     0.000000
   19     1.000000    90.000000     0.000000     0.000000     1.000000     0.000000     0.000000     0.000000
   20    -1.000000    90.000000     0.000000     0.000000     1.000000     0.000000     0.000000     0.000000
   21     1.000000    90.000000    -1.000000     0.000000     0.000000     0.000000     0.000000     0.000000
   22    -1.000000    90.000000    -1.000000     0.000000     0.000000     0.000000     0.000000     0.000000
   23     1.000000   180.000000     0.707107     0.000000     0.707107     0.000000     0.000000     0.000000
   24    -1.000000   180.000000     0.707107     0.000000     0.707107     0.000000     0.000000     0.000000
   25     1.000000   120.000000     0.577350    -0.577350     0.577350     0.000000     0.000000     0.000000
   26    -1.000000   120.000000     0.577350    -0.577350     0.577350     0.000000     0.000000     0.000000
   27     1.000000   120.000000    -0.577350    -0.577350     0.577350     0.000000     0.000000     0.000000
   28    -1.000000   120.000000    -0.577350    -0.577350     0.577350     0.000000     0.000000     0.000000
   29     1.000000   180.000000     1.000000     0.000000     0.000000     0.000000     0.000000     0.000000
   30    -1.000000   180.000000     1.000000     0.000000     0.000000     0.000000     0.000000     0.000000
   31     1.000000    90.000000     0.000000    -1.000000     0.000000     0.000000     0.000000     0.000000
   32    -1.000000    90.000000     0.000000    -1.000000     0.000000     0.000000     0.000000     0.000000
   33     1.000000   180.000000     0.707107     0.707107     0.000000     0.000000     0.000000     0.000000
   34    -1.000000   180.000000     0.707107     0.707107     0.000000     0.000000     0.000000     0.000000
   35     1.000000    90.000000     1.000000     0.000000     0.000000     0.000000     0.000000     0.000000
   36    -1.000000    90.000000     1.000000     0.000000     0.000000     0.000000     0.000000     0.000000
   37     1.000000   120.000000     0.577350    -0.577350    -0.577350     0.000000     0.000000     0.000000
   38    -1.000000   120.000000     0.577350    -0.577350    -0.577350     0.000000     0.000000     0.000000
   39     1.000000   180.000000     0.000000     1.000000     0.000000     0.000000     0.000000     0.000000
   40    -1.000000   180.000000     0.000000     1.000000     0.000000     0.000000     0.000000     0.000000
   41     1.000000   120.000000     0.577350     0.577350    -0.577350     0.000000     0.000000     0.000000
   42    -1.000000   120.000000     0.577350     0.577350    -0.577350     0.000000     0.000000     0.000000
   43     1.000000   180.000000     0.000000    -0.707107     0.707107     0.000000     0.000000     0.000000
   44    -1.000000   180.000000     0.000000    -0.707107     0.707107     0.000000     0.000000     0.000000
   45     1.000000   180.000000     0.707107    -0.707107     0.000000     0.000000     0.000000     0.000000
   46    -1.000000   180.000000     0.707107    -0.707107     0.000000     0.000000     0.000000     0.000000
   47     1.000000   180.000000     0.707107     0.000000    -0.707107     0.000000     0.000000     0.000000
   48    -1.000000   180.000000     0.707107     0.000000    -0.707107     0.000000     0.000000     0.000000

 I would recommend the setting:
   dimension x,y,z NGX =    32 NGY =   32 NGZ =   32
 SYSTEM =  Al_225
 POSCAR =  Al

 Startparameter for this run:
   NWRITE =      2    write-flag & timer
   PREC   = accura    normal or accurate (medium, high low for compatibility)
   ISTART =      1    job   : 0-new  1-cont  2-samecut
   ICHARG =      1    charge: 1-file 2-atom 10-const
   ISPIN  =      2    spin polarized calculation?
   LNONCOLLINEAR =      F non collinear calculations
   LSORBIT =      F    spin-orbit coupling
   INIWAV =      1    electr: 0-lowe 1-rand  2-diag
   LASPH  =      F    aspherical Exc in radial PAW
   METAGGA=      F    non-selfconsistent MetaGGA calc.

 Electronic Relaxation 1
   ENCUT  =  600.0 eV  44.10 Ry    6.64 a.u.   8.07  8.07  8.07*2*pi/ulx,y,z
   ENINI  =  600.0     initial cutoff
   ENAUG  =  291.1 eV  augmentation charge cutoff
   NELM   =    100;   NELMIN=  2; NELMDL=  0     # of ELM steps
   EDIFF  = 0.1E-07   stopping-criterion for ELM
   LREAL  =      F    real-space projection
   NLSPLINE    = F    spline interpolate recip. space projectors
   LCOMPAT=      F    compatible to vasp.4.4
   GGA_COMPAT  = T    GGA compatible to vasp.4.4-vasp.4.6
   LMAXPAW     = -100 max onsite density
   LMAXMIX     =    2 max onsite mixed and CHGCAR
   VOSKOWN=      0    Vosko Wilk Nusair interpolation
   ROPT   =    0.00000
 Ionic relaxation
   EDIFFG = 0.1E-06   stopping-criterion for IOM
   NSW    =      0    number of steps for IOM
   NBLOCK =      1;   KBLOCK =      1    inner block; outer block
   IBRION =     -1    ionic relax: 0-MD 1-quasi-New 2-CG
   NFREE  =      6    steps in history (QN), initial steepest desc. (CG)
   ISIF   =      2    stress and relaxation
   IWAVPR =     10    prediction:  0-non 1-charg 2-wave 3-comb
   ISYM   =      2    0-nonsym 1-usesym 2-fastsym
   LCORR  =      T    Harris-Foulkes like correction to forces

   POTIM  = 0.5000    time-step for ionic-motion
   TEIN   =    0.0    initial temperature
   TEBEG  =    0.0;   TEEND  =   0.0 temperature during run
   SMASS  =  -3.00    Nose mass-parameter (am)
   estimated Nose-frequenzy (Omega)   =  0.10E-29 period in steps =****** mass=  -0.373E-27a.u.
   SCALEE = 1.0000    scale energy and forces
   NPACO  =    256;   APACO  = 16.0  distance and # of slots for P.C.
   PSTRESS=    0.0 pullay stress

  Mass of Ions in am
   POMASS =  26.98
  Ionic Valenz
   ZVAL   =   3.00
  Atomic Wigner-Seitz radii
  virtual crystal weights
   VCA    =   1.00
[...]
 k-point 36 :   0.5000 0.2465 0.2465  plane waves:    2190
 k-point 37 :   0.5000 0.2535 0.2535  plane waves:    2190
 k-point 38 :   0.5000 0.2606 0.2606  plane waves:    2190
 k-point 39 :   0.5000 0.2676 0.2676  plane waves:    2196
 k-point 40 :   0.5000 0.2746 0.2746  plane waves:    2204
 k-point 41 :   0.5000 0.2817 0.2817  plane waves:    2204
 k-point 42 :   0.5000 0.2887 0.2887  plane waves:    2208
 k-point 43 :   0.5000 0.2958 0.2958  plane waves:    2204
 k-point 44 :   0.5000 0.3028 0.3028  plane waves:    2204
 k-point 45 :   0.5000 0.3099 0.3099  plane waves:    2210
 k-point 46 :   0.5000 0.3169 0.3169  plane waves:    2206
 k-point 47 :   0.5000 0.3239 0.3239  plane waves:    2206
 k-point 48 :   0.5000 0.3310 0.3310  plane waves:    2206
 k-point 49 :   0.5000 0.3380 0.3380  plane waves:    2214
 k-point 50 :   0.5000 0.3451 0.3451  plane waves:    2214
 k-point 51 :   0.5000 0.3521 0.3521  plane waves:    2214
 k-point 52 :   0.5000 0.3592 0.3592  plane waves:    2222
 k-point 53 :   0.5000 0.3662 0.3662  plane waves:    2222
 k-point 54 :   0.5000 0.3732 0.3732  plane waves:    2226
 k-point 55 :   0.5000 0.3803 0.3803  plane waves:    2226
 k-point 56 :   0.5000 0.3873 0.3873  plane waves:    2232
 k-point 57 :   0.5000 0.3944 0.3944  plane waves:    2238
 k-point 58 :   0.5000 0.4014 0.4014  plane waves:    2234
 k-point 59 :   0.5000 0.4085 0.4085  plane waves:    2234
 k-point 60 :   0.5000 0.4155 0.4155  plane waves:    2238
[...]
 k-point 85 :   0.4155 0.5000 0.4155  plane waves:    2238
 k-point 86 :   0.4085 0.5000 0.4085  plane waves:    2234
 k-point 87 :   0.4014 0.5000 0.4014  plane waves:    2234
 k-point 88 :   0.3944 0.5000 0.3944  plane waves:    2238
 k-point 89 :   0.3873 0.5000 0.3873  plane waves:    2232
 k-point 90 :   0.3803 0.5000 0.3803  plane waves:    2226
 k-point 91 :   0.3732 0.5000 0.3732  plane waves:    2226
 k-point 92 :   0.3662 0.5000 0.3662  plane waves:    2222
 k-point 93 :   0.3592 0.5000 0.3592  plane waves:    2222
 k-point 94 :   0.3521 0.5000 0.3521  plane waves:    2214
 k-point 95 :   0.3451 0.5000 0.3451  plane waves:    2214
 k-point 96 :   0.3380 0.5000 0.3380  plane waves:    2214
 k-point 97 :   0.3310 0.5000 0.3310  plane waves:    2206
 k-point 98 :   0.3239 0.5000 0.3239  plane waves:    2206
 k-point 99 :   0.3169 0.5000 0.3169  plane waves:    2206
 k-point ** :   0.3099 0.5000 0.3099  plane waves:    2210
 k-point ** :   0.3028 0.5000 0.3028  plane waves:    2204
 k-point ** :   0.2958 0.5000 0.2958  plane waves:    2204
 k-point ** :   0.2887 0.5000 0.2887  plane waves:    2208
 k-point ** :   0.2817 0.5000 0.2817  plane waves:    2204
 k-point ** :   0.2746 0.5000 0.2746  plane waves:    2204
 k-point ** :   0.2676 0.5000 0.2676  plane waves:    2196
 k-point ** :   0.2606 0.5000 0.2606  plane waves:    2190
 k-point ** :   0.2535 0.5000 0.2535  plane waves:    2190
 k-point ** :   0.2465 0.5000 0.2465  plane waves:    2190
 k-point ** :   0.2394 0.5000 0.2394  plane waves:    2190
 k-point ** :   0.2324 0.5000 0.2324  plane waves:    2194
 k-point ** :   0.2254 0.5000 0.2254  plane waves:    2202
 k-point ** :   0.2183 0.5000 0.2183  plane waves:    2194
 k-point ** :   0.2113 0.5000 0.2113  plane waves:    2194
 k-point ** :   0.2042 0.5000 0.2042  plane waves:    2198
 k-point ** :   0.1972 0.5000 0.1972  plane waves:    2206
 k-point ** :   0.1901 0.5000 0.1901  plane waves:    2206
 k-point ** :   0.1831 0.5000 0.1831  plane waves:    2206
 k-point ** :   0.1761 0.5000 0.1761  plane waves:    2212
 k-point ** :   0.1690 0.5000 0.1690  plane waves:    2216
 k-point ** :   0.1620 0.5000 0.1620  plane waves:    2216
 k-point ** :   0.1549 0.5000 0.1549  plane waves:    2212
 k-point ** :   0.1479 0.5000 0.1479  plane waves:    2200
 k-point ** :   0.1408 0.5000 0.1408  plane waves:    2198
 k-point ** :   0.1338 0.5000 0.1338  plane waves:    2198
 k-point ** :   0.1268 0.5000 0.1268  plane waves:    2198
 k-point ** :   0.1197 0.5000 0.1197  plane waves:    2198
 k-point ** :   0.1127 0.5000 0.1127  plane waves:    2194
 k-point ** :   0.1056 0.5000 0.1056  plane waves:    2200
 k-point ** :   0.0986 0.5000 0.0986  plane waves:    2200
 k-point ** :   0.0915 0.5000 0.0915  plane waves:    2188
 k-point ** :   0.0845 0.5000 0.0845  plane waves:    2192
 k-point ** :   0.0775 0.5000 0.0775  plane waves:    2192
 k-point ** :   0.0704 0.5000 0.0704  plane waves:    2188
 k-point ** :   0.0634 0.5000 0.0634  plane waves:    2188
 k-point ** :   0.0563 0.5000 0.0563  plane waves:    2188
 k-point ** :   0.0493 0.5000 0.0493  plane waves:    2196
 k-point ** :   0.0423 0.5000 0.0423  plane waves:    2204
 k-point ** :   0.0352 0.5000 0.0352  plane waves:    2204
 k-point ** :   0.0282 0.5000 0.0282  plane waves:    2204
 k-point ** :   0.0211 0.5000 0.0211  plane waves:    2204
 k-point ** :   0.0141 0.5000 0.0141  plane waves:    2192
 k-point ** :   0.0070 0.5000 0.0070  plane waves:    2184
 k-point ** :   0.0000 0.5000 0.0000  plane waves:    2168
 k-point ** :   0.0000 0.5000 0.0000  plane waves:    2168
 k-point ** :   0.0000 0.4930 0.0000  plane waves:    2168
 k-point ** :   0.0000 0.4859 0.0000  plane waves:    2180
 k-point ** :   0.0000 0.4789 0.0000  plane waves:    2188
 k-point ** :   0.0000 0.4718 0.0000  plane waves:    2188
 k-point ** :   0.0000 0.4648 0.0000  plane waves:    2188
 k-point ** :   0.0000 0.4577 0.0000  plane waves:    2188
 k-point ** :   0.0000 0.4507 0.0000  plane waves:    2188
 k-point ** :   0.0000 0.4437 0.0000  plane waves:    2188
 k-point ** :   0.0000 0.4366 0.0000  plane waves:    2184
 k-point ** :   0.0000 0.4296 0.0000  plane waves:    2184
 k-point ** :   0.0000 0.4225 0.0000  plane waves:    2192
 k-point ** :   0.0000 0.4155 0.0000  plane waves:    2184
 k-point ** :   0.0000 0.4085 0.0000  plane waves:    2184
 k-point ** :   0.0000 0.4014 0.0000  plane waves:    2184
[...]
 k-point ** :   0.4014 0.4014 0.4014  plane waves:    2230
 k-point ** :   0.4085 0.4085 0.4085  plane waves:    2230
 k-point ** :   0.4155 0.4155 0.4155  plane waves:    2236
 k-point ** :   0.4225 0.4225 0.4225  plane waves:    2236
 k-point ** :   0.4296 0.4296 0.4296  plane waves:    2236
 k-point ** :   0.4366 0.4366 0.4366  plane waves:    2236
 k-point ** :   0.4437 0.4437 0.4437  plane waves:    2230
 k-point ** :   0.4507 0.4507 0.4507  plane waves:    2242
 k-point ** :   0.4577 0.4577 0.4577  plane waves:    2242
 k-point ** :   0.4648 0.4648 0.4648  plane waves:    2242
 k-point ** :   0.4718 0.4718 0.4718  plane waves:    2248
 k-point ** :   0.4789 0.4789 0.4789  plane waves:    2254
 k-point ** :   0.4859 0.4859 0.4859  plane waves:    2272
 k-point ** :   0.4930 0.4930 0.4930  plane waves:    2272
 k-point ** :   0.5000 0.5000 0.5000  plane waves:    2272

 maximum and minimum number of plane-waves per node :       219      172

 maximum number of plane-waves:      2272
 maximum index in each direction:
   IXMAX=    8   IYMAX=    8   IZMAX=    8
   IXMIN=   -8   IYMIN=   -8   IZMIN=   -8

 WARNING: aliasing errors must be expected set NGX to  34 to avoid them
 WARNING: aliasing errors must be expected set NGY to  34 to avoid them
 WARNING: aliasing errors must be expected set NGZ to  34 to avoid them
 aliasing errors are usually negligible using standard VASP settings
 and one can safely disregard these warnings

 parallel 3D FFT for wavefunctions:
    minimum data exchange during FFTs selected (reduces bandwidth)
 parallel 3D FFT for charge:
    minimum data exchange during FFTs selected (reduces bandwidth)

 Broyden mixing: mesh for mixing (old mesh)
   NGX = 17   NGY = 17   NGZ = 17
  (NGX  = 64   NGY  = 64   NGZ  = 64)
  gives a total of   4913 points

 initial charge density was supplied:
 number of electron      12.0000000 magnetization      -0.0000003
 keeping initial charge density in first step

 Maximum index for augmentation-charges          853 (set IRDMAX)

 First call to EWALD:  gamma=   0.439
 Maximum number of real-space cells 3x 3x 3
 Maximum number of reciprocal cells 3x 3x 3

 FEWALD executed in parallel

----------------------------------------- Iteration    1(   1)  ---------------------------------------

 eigenvalue-minimisations  : 42008
 total energy-change (2. order) :-0.1577570E+02  (-0.7834209E+01)
 number of electron      12.0000000 magnetization       0.0001229
 augmentation part       -0.1496055 magnetization       0.0000231

 Broyden mixing:
  rms(total) = 0.38060E-01    rms(broyden)= 0.38060E-01
  rms(prec ) = 0.40708E-01
  weight for this iteration     100.00

 Free energy of the ion-electron system (eV)
  alpha Z        PSCENC =        -0.81457851
  Ewald energy   TEWEN  =      -294.10150216
  -Hartree energ DENC   =        -0.41829180
  -exchange      EXHF   =         0.00000000
  -V(xc)+E(xc)   XCENC  =      -104.51682179
  PAW double counting   =       561.68207824     -433.91360535
  entropy T*S    EENTRO =        -0.07109670
  eigenvalues    EBANDS =        42.22391732
  atomic energy  EATOM  =       214.15419884
  Solvation  Ediel_sol  =         0.00000000
  free energy    TOTEN  =       -15.77570192 eV

  energy without entropy =      -15.70460521  energy(sigma->0) =      -15.74015356

[...]

 eigenvalues of (default mixing * dielectric matrix)
  average eigenvalue GAMMA=   0.6007
  0.6007

[...]

 eigenvalue-minimisations  : 32448
 total energy-change (2. order) : 0.2833437E-05  (-0.1406948E-04)
 number of electron      12.0000000 magnetization       0.0000058
 augmentation part       -0.1594410 magnetization      -0.0000166

[...]

 eigenvalue-minimisations  : 31888
 total energy-change (2. order) : 0.1423105E-05  (-0.1295882E-07)
 number of electron      12.0000000 magnetization      -0.0000001
 augmentation part       -0.1593266 magnetization      -0.0000002

[...]

 Broyden mixing:
  rms(total) = 0.34592E-05    rms(broyden)= 0.34592E-05
  rms(prec ) = 0.43048E-05
  weight for this iteration     100.00

 eigenvalues of (default mixing * dielectric matrix)
  average eigenvalue GAMMA=   1.4096
  2.6042  2.6042  2.0769  1.7602  1.0487  1.0487  0.8944  0.7773  0.6261  0.6558

[...]

----------------------------------------- Iteration    1(  12)  ---------------------------------------

 eigenvalue-minimisations  : 16448
 total energy-change (2. order) :-0.6530684E-08  (-0.5127377E-12)
 number of electron      12.0000000 magnetization      -0.0000001
 augmentation part       -0.1593254 magnetization      -0.0000001

 Free energy of the ion-electron system (eV)
  alpha Z        PSCENC =        -0.81457851
  Ewald energy   TEWEN  =      -294.10150216
  -Hartree energ DENC   =        -0.41530031
  -exchange      EXHF   =         0.00000000
  -V(xc)+E(xc)   XCENC  =      -104.52288835
  PAW double counting   =       558.53727319     -430.77714797
  entropy T*S    EENTRO =        -0.07095673
  eigenvalues    EBANDS =        41.90690670
  atomic energy  EATOM  =       214.15419884
  Solvation  Ediel_sol  =         0.00000000
  free energy    TOTEN  =       -16.10399530 eV

  energy without entropy =      -16.03303857  energy(sigma->0) =      -16.06851693

 average (electrostatic) potential at core
  the test charge radii are     1.0406
  (the norm of the test charge is              1.0000)
       1 -72.6041       2 -72.6041       3 -72.6041       4 -72.6041

 E-fermi :   7.0045     XC(G=0): -10.1974     alpha+bet :-14.8822

 spin component 1

 k-point     1 :       0.5000    0.0000    0.0000
  band No.  band energies     occupation
      1      -0.8834      1.00000
      2      -0.8834      1.00000
      3       7.1585      0.17646
      4       7.1585      0.17646
      5       7.1585      0.17646
      6       7.1585      0.17646
      7       8.1732      0.00001
      8       8.1732      0.00001
      9       9.1156      0.00000
     10       9.1156      0.00000
     11      15.4825      0.00000
     12      15.4825      0.00000
     13      15.5272      0.00000
     14      15.5272      0.00000
     15      15.5272      0.00000
     16      15.5272      0.00000
     17      16.2659      0.00000
     18      16.2659      0.00000
     19      19.0257      0.00000
     20      19.0257      0.00000
     21      23.8332      0.00000
     22      23.8332      0.00000
     23      24.3840      0.00000
     24      24.3840      0.00000

[...]

 spin component 2

[...]

 k-point   288 :       0.5000    0.5000    0.5000
  band No.  band energies     occupation
      1       3.4101      1.00000
      2       3.4101      1.00000
      3       3.4101      1.00000
      4       3.4101      1.00000
      5       3.6251      1.00000
      6       3.6251      1.00000
      7       3.6251      1.00000
      8       3.6251      1.00000
      9      19.4207      0.00000
     10      19.4207      0.00000
     11      19.4207      0.00000
     12      19.4207      0.00000
     13      19.4207      0.00000
     14      19.4207      0.00000
     15      19.4207      0.00000
     16      19.4207      0.00000
     17      19.4668      0.00000
     18      19.4668      0.00000
     19      19.4668      0.00000
     20      19.4668      0.00000
     21      19.4668      0.00000
     22      19.4668      0.00000
     23      19.4668      0.00000
     24      19.4668      0.00000

 soft charge-density along one line, spin component           1
         0         1         2         3         4         5         6         7         8         9
 total charge-density along one line

 soft charge-density along one line, spin component           2
         0         1         2         3         4         5         6         7         8         9
 total charge-density along one line

------------------------ aborting loop because EDIFF is reached ----------------------------------------

  FORCE on cell =-STRESS in cart. coord.  units (eV):
  Direction    XX          YY          ZZ          XY          YZ          ZX
  Alpha Z    -0.81458    -0.81458    -0.81458
  Ewald     -98.03388   -98.03388   -98.03388     0.00000     0.00000    -0.00000
  Hartree     0.13843     0.13843     0.13843    -0.00000    -0.00000    -0.00000
  E(xc)     -34.28313   -34.28313   -34.28313     0.00000    -0.00000    -0.00000
  Local       1.29630     1.29630     1.29630    -0.00000     0.00000    -0.00000
  n-local    76.38928    75.96416    77.01970     0.08040     0.30792     0.30792
  augment    -4.24898    -4.24898    -4.24898     0.00000    -0.00000    -0.00000
  Kinetic    60.65969    56.13937    60.81921    -1.04745    -3.24866    -3.24866
  Fock        0.00000     0.00000     0.00000     0.00000     0.00000     0.00000
  Total      -0.28202    -0.28202    -0.28202     0.00000     0.00000    -0.00000
  in kB      -6.84890    -6.84890    -6.84890     0.00000     0.00000    -0.00000

 VOLUME and BASIS-vectors are now :
  energy-cutoff  :      600.00
  volume of cell :       65.97
      direct lattice vectors                 reciprocal lattice vectors
     4.040709377  0.000000000  0.000000000     0.247481298  0.000000000  0.000000000
     0.000000000  4.040709377  0.000000000     0.000000000  0.247481298  0.000000000
     0.000000000  0.000000000  4.040709377     0.000000000  0.000000000  0.247481298

  length of vectors
     4.040709377  4.040709377  4.040709377     0.247481298  0.247481298  0.247481298

 FORCES acting on ions
    electron-ion (+dipol)            ewald-force                    non-local-force                 convergence-correction
   -.548E-15 -.278E-15 0.118E-15   0.807E-15 -.637E-15 -.841E-15   0.631E-27 0.404E-27 0.268E-26   0.548E-17 0.122E-16 -.317E-17
   -.682E-15 -.398E-14 -.274E-14   0.829E-15 0.129E-14 0.350E-15   -.404E-27 0.000E+00 -.202E-26   0.649E-17 -.222E-16 -.159E-17
   -.141E-14 -.160E-14 -.308E-13   -.944E-15 -.122E-14 0.359E-15   0.101E-27 0.121E-26 -.121E-26   0.604E-17 0.324E-16 0.992E-18
   -.111E-14 0.661E-15 0.674E-14   -.922E-15 0.707E-15 0.210E-15   0.121E-26 -.121E-26 -.242E-26   0.502E-17 -.290E-16 -.240E-17
   -.375E-14 -.520E-14 -.267E-13   -.230E-15 0.140E-15 0.783E-16   0.154E-26 0.404E-27 -.298E-26   0.230E-16 -.666E-17 -.617E-17

 POSITION                                       TOTAL-FORCE (eV/Angst)
      0.00000      0.00000      0.00000         0.000000     -0.000000      0.000000
      0.00000      2.02035      2.02035         0.000000      0.000000      0.000000
      2.02035      0.00000      2.02035         0.000000      0.000000      0.000000
      2.02035      2.02035      0.00000         0.000000      0.000000     -0.000000
    total drift:                               -0.000000     -0.000000     -0.000000

  FREE ENERGIE OF THE ION-ELECTRON SYSTEM (eV)
  free  energy   TOTEN  =       -16.10399530 eV

  energy  without entropy=      -16.03303857  energy(sigma->0) =      -16.06851693

 writing wavefunctions